NAME:  test1
TYPE: AGTSP
COMMENT: gtsp tours
DIMENSION:  57
GTSP_SETS: 15
EDGE_WEIGHT_TYPE: EXPLICIT
EDGE_WEIGHT_FORMAT: FULL_MATRIX 
EDGE_WEIGHT_SECTION
999999	0	999999	999999	21101	21101	21101	21093	21109	21109	999999	999999	21115	21115	999999	999999	21077	21077	21069	999999	21083	21083	21083	21075	21106	21106	999999	999999	21096	21096	21096	21088	21101	21101	21101	21093	21093	21093	21093	21085	21120	21120	999999	999999	21091	21091	21091	21083	21095	21095	21095	21087	21065	21065	21057	999999	0
999999	999999	0	999999	21101	21101	21101	999999	21109	21109	21109	999999	21115	21115	21115	999999	21077	21077	21077	21069	21083	21083	21083	999999	21106	21106	21106	999999	21096	21096	21096	999999	21101	21101	21101	999999	21093	21093	21093	999999	21120	21120	21120	999999	21091	21091	21091	999999	21095	21095	21095	999999	21065	21065	21065	21057	0
999999	999999	999999	0	21101	21101	21101	21101	21109	21109	21109	21109	21115	21115	21115	21115	21077	21077	21077	21077	21083	21083	21083	21083	21106	21106	21106	21106	21096	21096	21096	21096	21101	21101	21101	21101	21093	21093	21093	21093	21120	21120	21120	21120	21091	21091	21091	21091	21095	21095	21095	21095	21065	21065	21065	21065	0
0	999999	999999	999999	21101	21101	21093	999999	21109	21109	21109	21101	21115	21115	21115	21107	21077	21069	999999	999999	21083	21083	21075	999999	21106	21106	21106	21098	21096	21096	21088	999999	21101	21101	21093	999999	21093	21093	21085	999999	21120	21120	21120	21112	21091	21091	21083	999999	21095	21095	21087	999999	21065	21057	999999	999999	0
21101	21101	21101	21093	999999	0	999999	999999	21070	21070	21062	999999	21077	21077	21069	999999	21108	21108	999999	999999	21084	21084	21084	21076	21111	21111	999999	999999	21069	21069	21061	999999	21065	21065	21057	999999	21083	21083	21083	21075	21109	21109	999999	999999	21106	21106	999999	999999	21100	21100	21100	21092	21096	21096	21096	21088	0
21101	21101	21101	999999	999999	999999	0	999999	21070	21070	21070	21062	21077	21077	21077	21069	21108	21108	21108	999999	21084	21084	21084	999999	21111	21111	21111	999999	21069	21069	21069	21061	21065	21065	21065	21057	21083	21083	21083	999999	21109	21109	21109	999999	21106	21106	21106	999999	21100	21100	21100	999999	21096	21096	21096	999999	0
21101	21101	21101	21101	999999	999999	999999	0	21070	21070	21070	21070	21077	21077	21077	21077	21108	21108	21108	21108	21084	21084	21084	21084	21111	21111	21111	21111	21069	21069	21069	21069	21065	21065	21065	21065	21083	21083	21083	21083	21109	21109	21109	21109	21106	21106	21106	21106	21100	21100	21100	21100	21096	21096	21096	21096	0
21101	21101	21093	999999	0	999999	999999	999999	21070	21062	999999	999999	21077	21069	999999	999999	21108	21108	21108	21100	21084	21084	21076	999999	21111	21111	21111	21103	21069	21061	999999	999999	21065	21057	999999	999999	21083	21083	21075	999999	21109	21109	21109	21101	21106	21106	21106	21098	21100	21100	21092	999999	21096	21096	21088	999999	0
21109	21109	999999	999999	21070	21070	21062	999999	999999	0	999999	999999	21068	21068	21060	999999	21114	21114	999999	999999	21088	21088	21088	21080	21110	21110	999999	999999	21073	21073	21065	999999	21074	21074	21066	999999	21084	21084	21084	21076	21104	21104	999999	999999	21108	21108	999999	999999	21101	21101	21101	21093	21104	21104	999999	999999	0
21109	21109	21109	999999	21070	21070	21070	21062	999999	999999	0	999999	21068	21068	21068	21060	21114	21114	21114	999999	21088	21088	21088	999999	21110	21110	21110	999999	21073	21073	21073	21065	21074	21074	21074	21066	21084	21084	21084	999999	21104	21104	21104	999999	21108	21108	21108	999999	21101	21101	21101	999999	21104	21104	21104	999999	0
21109	21109	21109	21109	21070	21070	21070	21070	999999	999999	999999	0	21068	21068	21068	21068	21114	21114	21114	21114	21088	21088	21088	21088	21110	21110	21110	21110	21073	21073	21073	21073	21074	21074	21074	21074	21084	21084	21084	21084	21104	21104	21104	21104	21108	21108	21108	21108	21101	21101	21101	21101	21104	21104	21104	21104	0
21109	21109	21109	21101	21070	21062	999999	999999	0	999999	999999	999999	21068	21060	999999	999999	21114	21114	21114	21106	21088	21088	21080	999999	21110	21110	21110	21102	21073	21065	999999	999999	21074	21066	999999	999999	21084	21084	21076	999999	21104	21104	21104	21096	21108	21108	21108	21100	21101	21101	21093	999999	21104	21104	21104	21096	0
21115	21115	999999	999999	21077	21077	21069	999999	21068	21068	21060	999999	999999	0	999999	999999	21118	21118	999999	999999	21093	21093	21093	21085	21110	21110	999999	999999	21079	21079	21071	999999	21081	21081	21073	999999	21087	21087	21087	21079	21101	21101	21101	21093	21111	21111	999999	999999	21103	21103	999999	999999	21111	21111	999999	999999	0
21115	21115	21115	999999	21077	21077	21077	21069	21068	21068	21068	21060	999999	999999	0	999999	21118	21118	21118	999999	21093	21093	21093	999999	21110	21110	21110	999999	21079	21079	21079	21071	21081	21081	21081	21073	21087	21087	21087	999999	21101	21101	21101	999999	21111	21111	21111	999999	21103	21103	21103	999999	21111	21111	21111	999999	0
21115	21115	21115	21115	21077	21077	21077	21077	21068	21068	21068	21068	999999	999999	999999	0	21118	21118	21118	21118	21093	21093	21093	21093	21110	21110	21110	21110	21079	21079	21079	21079	21081	21081	21081	21081	21087	21087	21087	21087	21101	21101	21101	21101	21111	21111	21111	21111	21103	21103	21103	21103	21111	21111	21111	21111	0
21115	21115	21115	21107	21077	21069	999999	999999	21068	21060	999999	999999	0	999999	999999	999999	21118	21118	21118	21110	21093	21093	21085	999999	21110	21110	21110	21102	21079	21071	999999	999999	21081	21073	999999	999999	21087	21087	21079	999999	21101	21101	21093	999999	21111	21111	21111	21103	21103	21103	21103	21095	21111	21111	21111	21103	0
21077	21077	21069	999999	21108	21108	999999	999999	21114	21114	999999	999999	21118	21118	999999	999999	999999	0	999999	999999	21085	21085	21085	21077	21093	21093	21093	21085	21101	21101	21101	21093	21110	21110	999999	999999	21092	21092	21092	21084	21111	21111	999999	999999	21078	21078	21070	999999	21085	21085	21085	21077	21079	21079	21071	999999	0
21077	21077	21077	21069	21108	21108	21108	999999	21114	21114	21114	999999	21118	21118	21118	999999	999999	999999	0	999999	21085	21085	21085	999999	21093	21093	21093	999999	21101	21101	21101	999999	21110	21110	21110	999999	21092	21092	21092	999999	21111	21111	21111	999999	21078	21078	21078	21070	21085	21085	21085	999999	21079	21079	21079	21071	0
21077	21077	21077	21077	21108	21108	21108	21108	21114	21114	21114	21114	21118	21118	21118	21118	999999	999999	999999	0	21085	21085	21085	21085	21093	21093	21093	21093	21101	21101	21101	21101	21110	21110	21110	21110	21092	21092	21092	21092	21111	21111	21111	21111	21078	21078	21078	21078	21085	21085	21085	21085	21079	21079	21079	21079	0
21077	21069	999999	999999	21108	21108	21108	21100	21114	21114	21114	21106	21118	21118	21118	21110	0	999999	999999	999999	21085	21085	21077	999999	21093	21093	21085	999999	21101	21101	21093	999999	21110	21110	21110	21102	21092	21092	21084	999999	21111	21111	21111	21103	21078	21070	999999	999999	21085	21085	21077	999999	21079	21071	999999	999999	0
21083	21083	21083	21075	21084	21084	21084	21076	21088	21088	21088	21080	21093	21093	21093	21085	21085	21085	21085	21077	999999	0	999999	999999	21093	21093	21093	21085	21076	21076	21068	999999	21086	21086	21086	21078	21070	21070	21062	999999	21100	21100	21100	21092	21084	21084	21084	21076	21080	21080	21072	999999	21080	21080	21072	999999	0
21083	21083	21083	999999	21084	21084	21084	999999	21088	21088	21088	999999	21093	21093	21093	999999	21085	21085	21085	999999	999999	999999	0	999999	21093	21093	21093	999999	21076	21076	21076	21068	21086	21086	21086	999999	21070	21070	21070	21062	21100	21100	21100	999999	21084	21084	21084	999999	21080	21080	21080	21072	21080	21080	21080	21072	0
21083	21083	21083	21083	21084	21084	21084	21084	21088	21088	21088	21088	21093	21093	21093	21093	21085	21085	21085	21085	999999	999999	999999	0	21093	21093	21093	21093	21076	21076	21076	21076	21086	21086	21086	21086	21070	21070	21070	21070	21100	21100	21100	21100	21084	21084	21084	21084	21080	21080	21080	21080	21080	21080	21080	21080	0
21083	21083	21075	999999	21084	21084	21076	999999	21088	21088	21080	999999	21093	21093	21085	999999	21085	21085	21077	999999	0	999999	999999	999999	21093	21093	21085	999999	21076	21068	999999	999999	21086	21086	21078	999999	21070	21062	999999	999999	21100	21100	21092	999999	21084	21084	21076	999999	21080	21072	999999	999999	21080	21072	999999	999999	0
21106	21106	999999	999999	21111	21111	999999	999999	21110	21110	999999	999999	21110	21110	999999	999999	21093	21093	21093	21085	21093	21093	21093	21085	999999	0	999999	999999	21102	21102	21102	21094	21115	21115	999999	999999	21088	21088	21088	21080	21081	21081	21073	999999	21076	21076	21068	999999	21073	21073	21065	999999	21105	21105	999999	999999	0
21106	21106	21106	999999	21111	21111	21111	999999	21110	21110	21110	999999	21110	21110	21110	999999	21093	21093	21093	999999	21093	21093	21093	999999	999999	999999	0	999999	21102	21102	21102	999999	21115	21115	21115	999999	21088	21088	21088	999999	21081	21081	21081	21073	21076	21076	21076	21068	21073	21073	21073	21065	21105	21105	21105	999999	0
21106	21106	21106	21106	21111	21111	21111	21111	21110	21110	21110	21110	21110	21110	21110	21110	21093	21093	21093	21093	21093	21093	21093	21093	999999	999999	999999	0	21102	21102	21102	21102	21115	21115	21115	21115	21088	21088	21088	21088	21081	21081	21081	21081	21076	21076	21076	21076	21073	21073	21073	21073	21105	21105	21105	21105	0
21106	21106	21106	21098	21111	21111	21111	21103	21110	21110	21110	21102	21110	21110	21110	21102	21093	21093	21085	999999	21093	21093	21085	999999	0	999999	999999	999999	21102	21102	21094	999999	21115	21115	21115	21107	21088	21088	21080	999999	21081	21073	999999	999999	21076	21068	999999	999999	21073	21065	999999	999999	21105	21105	21105	21097	0
21096	21096	21096	21088	21069	21069	21061	999999	21073	21073	21065	999999	21079	21079	21071	999999	21101	21101	21101	21093	21076	21076	21068	999999	21102	21102	21102	21094	999999	0	999999	999999	21073	21073	21065	999999	21074	21074	21066	999999	21102	21102	21102	21094	21098	21098	21098	21090	21091	21091	21091	21083	21091	21091	21091	21083	0
21096	21096	21096	999999	21069	21069	21069	21061	21073	21073	21073	21065	21079	21079	21079	21071	21101	21101	21101	999999	21076	21076	21076	21068	21102	21102	21102	999999	999999	999999	0	999999	21073	21073	21073	21065	21074	21074	21074	21066	21102	21102	21102	999999	21098	21098	21098	999999	21091	21091	21091	999999	21091	21091	21091	999999	0
21096	21096	21096	21096	21069	21069	21069	21069	21073	21073	21073	21073	21079	21079	21079	21079	21101	21101	21101	21101	21076	21076	21076	21076	21102	21102	21102	21102	999999	999999	999999	0	21073	21073	21073	21073	21074	21074	21074	21074	21102	21102	21102	21102	21098	21098	21098	21098	21091	21091	21091	21091	21091	21091	21091	21091	0
21096	21096	21088	999999	21069	21061	999999	999999	21073	21065	999999	999999	21079	21071	999999	999999	21101	21101	21093	999999	21076	21068	999999	999999	21102	21102	21094	999999	0	999999	999999	999999	21073	21065	999999	999999	21074	21066	999999	999999	21102	21102	21094	999999	21098	21098	21090	999999	21091	21091	21083	999999	21091	21091	21083	999999	0
21101	21101	21101	21093	21065	21065	21057	999999	21074	21074	21066	999999	21081	21081	21073	999999	21110	21110	999999	999999	21086	21086	21086	21078	21115	21115	999999	999999	21073	21073	21065	999999	999999	0	999999	999999	21087	21087	21087	21079	21114	21114	999999	999999	21110	21110	999999	999999	21104	21104	999999	999999	21097	21097	21097	21089	0
21101	21101	21101	999999	21065	21065	21065	21057	21074	21074	21074	21066	21081	21081	21081	21073	21110	21110	21110	999999	21086	21086	21086	999999	21115	21115	21115	999999	21073	21073	21073	21065	999999	999999	0	999999	21087	21087	21087	999999	21114	21114	21114	999999	21110	21110	21110	999999	21104	21104	21104	999999	21097	21097	21097	999999	0
21101	21101	21101	21101	21065	21065	21065	21065	21074	21074	21074	21074	21081	21081	21081	21081	21110	21110	21110	21110	21086	21086	21086	21086	21115	21115	21115	21115	21073	21073	21073	21073	999999	999999	999999	0	21087	21087	21087	21087	21114	21114	21114	21114	21110	21110	21110	21110	21104	21104	21104	21104	21097	21097	21097	21097	0
21101	21101	21093	999999	21065	21057	999999	999999	21074	21066	999999	999999	21081	21073	999999	999999	21110	21110	21110	21102	21086	21086	21078	999999	21115	21115	21115	21107	21073	21065	999999	999999	0	999999	999999	999999	21087	21087	21079	999999	21114	21114	21114	21106	21110	21110	21110	21102	21104	21104	21104	21096	21097	21097	21089	999999	0
21093	21093	21093	21085	21083	21083	21083	21075	21084	21084	21084	21076	21087	21087	21087	21079	21092	21092	21092	21084	21070	21070	21062	999999	21088	21088	21088	21080	21074	21074	21066	999999	21087	21087	21087	21079	999999	0	999999	999999	21091	21091	21091	21083	21084	21084	21084	21076	21077	21077	21069	999999	21089	21089	21089	21081	0
21093	21093	21093	999999	21083	21083	21083	999999	21084	21084	21084	999999	21087	21087	21087	999999	21092	21092	21092	999999	21070	21070	21070	21062	21088	21088	21088	999999	21074	21074	21074	21066	21087	21087	21087	999999	999999	999999	0	999999	21091	21091	21091	999999	21084	21084	21084	999999	21077	21077	21077	21069	21089	21089	21089	999999	0
21093	21093	21093	21093	21083	21083	21083	21083	21084	21084	21084	21084	21087	21087	21087	21087	21092	21092	21092	21092	21070	21070	21070	21070	21088	21088	21088	21088	21074	21074	21074	21074	21087	21087	21087	21087	999999	999999	999999	0	21091	21091	21091	21091	21084	21084	21084	21084	21077	21077	21077	21077	21089	21089	21089	21089	0
21093	21093	21085	999999	21083	21083	21075	999999	21084	21084	21076	999999	21087	21087	21079	999999	21092	21092	21084	999999	21070	21062	999999	999999	21088	21088	21080	999999	21074	21066	999999	999999	21087	21087	21079	999999	0	999999	999999	999999	21091	21091	21083	999999	21084	21084	21076	999999	21077	21069	999999	999999	21089	21089	21081	999999	0
21120	21120	999999	999999	21109	21109	999999	999999	21104	21104	999999	999999	21101	21101	21101	21093	21111	21111	999999	999999	21100	21100	21100	21092	21081	21081	21073	999999	21102	21102	21102	21094	21114	21114	999999	999999	21091	21091	21091	21083	999999	0	999999	999999	21095	21095	21095	21087	21087	21087	21087	21079	21118	21118	999999	999999	0
21120	21120	21120	999999	21109	21109	21109	999999	21104	21104	21104	999999	21101	21101	21101	999999	21111	21111	21111	999999	21100	21100	21100	999999	21081	21081	21081	21073	21102	21102	21102	999999	21114	21114	21114	999999	21091	21091	21091	999999	999999	999999	0	999999	21095	21095	21095	999999	21087	21087	21087	999999	21118	21118	21118	999999	0
21120	21120	21120	21120	21109	21109	21109	21109	21104	21104	21104	21104	21101	21101	21101	21101	21111	21111	21111	21111	21100	21100	21100	21100	21081	21081	21081	21081	21102	21102	21102	21102	21114	21114	21114	21114	21091	21091	21091	21091	999999	999999	999999	0	21095	21095	21095	21095	21087	21087	21087	21087	21118	21118	21118	21118	0
21120	21120	21120	21112	21109	21109	21109	21101	21104	21104	21104	21096	21101	21101	21093	999999	21111	21111	21111	21103	21100	21100	21092	999999	21081	21073	999999	999999	21102	21102	21094	999999	21114	21114	21114	21106	21091	21091	21083	999999	0	999999	999999	999999	21095	21095	21087	999999	21087	21087	21079	999999	21118	21118	21118	21110	0
21091	21091	21091	21083	21106	21106	999999	999999	21108	21108	999999	999999	21111	21111	999999	999999	21078	21078	21070	999999	21084	21084	21084	21076	21076	21076	21068	999999	21098	21098	21098	21090	21110	21110	999999	999999	21084	21084	21084	21076	21095	21095	21095	21087	999999	0	999999	999999	21070	21070	21062	999999	21091	21091	21091	21083	0
21091	21091	21091	999999	21106	21106	21106	999999	21108	21108	21108	999999	21111	21111	21111	999999	21078	21078	21078	21070	21084	21084	21084	999999	21076	21076	21076	21068	21098	21098	21098	999999	21110	21110	21110	999999	21084	21084	21084	999999	21095	21095	21095	999999	999999	999999	0	999999	21070	21070	21070	21062	21091	21091	21091	999999	0
21091	21091	21091	21091	21106	21106	21106	21106	21108	21108	21108	21108	21111	21111	21111	21111	21078	21078	21078	21078	21084	21084	21084	21084	21076	21076	21076	21076	21098	21098	21098	21098	21110	21110	21110	21110	21084	21084	21084	21084	21095	21095	21095	21095	999999	999999	999999	0	21070	21070	21070	21070	21091	21091	21091	21091	0
21091	21091	21083	999999	21106	21106	21106	21098	21108	21108	21108	21100	21111	21111	21111	21103	21078	21070	999999	999999	21084	21084	21076	999999	21076	21068	999999	999999	21098	21098	21090	999999	21110	21110	21110	21102	21084	21084	21076	999999	21095	21095	21087	999999	0	999999	999999	999999	21070	21062	999999	999999	21091	21091	21083	999999	0
21095	21095	21095	21087	21100	21100	21100	21092	21101	21101	21101	21093	21103	21103	999999	999999	21085	21085	21085	21077	21080	21080	21072	999999	21073	21073	21065	999999	21091	21091	21091	21083	21104	21104	999999	999999	21077	21077	21069	999999	21087	21087	21087	21079	21070	21070	21062	999999	999999	0	999999	999999	21093	21093	21093	21085	0
21095	21095	21095	999999	21100	21100	21100	999999	21101	21101	21101	999999	21103	21103	21103	999999	21085	21085	21085	999999	21080	21080	21080	21072	21073	21073	21073	21065	21091	21091	21091	999999	21104	21104	21104	999999	21077	21077	21077	21069	21087	21087	21087	999999	21070	21070	21070	21062	999999	999999	0	999999	21093	21093	21093	999999	0
21095	21095	21095	21095	21100	21100	21100	21100	21101	21101	21101	21101	21103	21103	21103	21103	21085	21085	21085	21085	21080	21080	21080	21080	21073	21073	21073	21073	21091	21091	21091	21091	21104	21104	21104	21104	21077	21077	21077	21077	21087	21087	21087	21087	21070	21070	21070	21070	999999	999999	999999	0	21093	21093	21093	21093	0
21095	21095	21087	999999	21100	21100	21092	999999	21101	21101	21093	999999	21103	21103	21103	21095	21085	21085	21077	999999	21080	21072	999999	999999	21073	21065	999999	999999	21091	21091	21083	999999	21104	21104	21104	21096	21077	21069	999999	999999	21087	21087	21079	999999	21070	21062	999999	999999	0	999999	999999	999999	21093	21093	21085	999999	0
21065	21065	21057	999999	21096	21096	21096	21088	21104	21104	999999	999999	21111	21111	999999	999999	21079	21079	21071	999999	21080	21080	21072	999999	21105	21105	999999	999999	21091	21091	21091	21083	21097	21097	21097	21089	21089	21089	21089	21081	21118	21118	999999	999999	21091	21091	21091	21083	21093	21093	21093	21085	999999	0	999999	999999	0
21065	21065	21065	21057	21096	21096	21096	999999	21104	21104	21104	999999	21111	21111	21111	999999	21079	21079	21079	21071	21080	21080	21080	21072	21105	21105	21105	999999	21091	21091	21091	999999	21097	21097	21097	999999	21089	21089	21089	999999	21118	21118	21118	999999	21091	21091	21091	999999	21093	21093	21093	999999	999999	999999	0	999999	0
21065	21065	21065	21065	21096	21096	21096	21096	21104	21104	21104	21104	21111	21111	21111	21111	21079	21079	21079	21079	21080	21080	21080	21080	21105	21105	21105	21105	21091	21091	21091	21091	21097	21097	21097	21097	21089	21089	21089	21089	21118	21118	21118	21118	21091	21091	21091	21091	21093	21093	21093	21093	999999	999999	999999	0	0
21065	21057	999999	999999	21096	21096	21088	999999	21104	21104	21104	21096	21111	21111	21111	21103	21079	21071	999999	999999	21080	21072	999999	999999	21105	21105	21105	21097	21091	21091	21083	999999	21097	21097	21089	999999	21089	21089	21081	999999	21118	21118	21118	21110	21091	21091	21083	999999	21093	21093	21085	999999	0	999999	999999	999999	0
21052	999999	999999	999999	21052	999999	999999	999999	21052	999999	999999	999999	21052	999999	999999	999999	21052	999999	999999	999999	21052	999999	999999	999999	21052	999999	999999	999999	21052	999999	999999	999999	21052	999999	999999	999999	21052	999999	999999	999999	21052	999999	999999	999999	21052	999999	999999	999999	21052	999999	999999	999999	21052	999999	999999	999999	999999
GTSP_SET_SECTION:
1 1 2 3 4 -1
2 5 6 7 8 -1
3 9 10 11 12 -1
4 13 14 15 16 -1
5 17 18 19 20 -1
6 21 22 23 24 -1
7 25 26 27 28 -1
8 29 30 31 32 -1
9 33 34 35 36 -1
10 37 38 39 40 -1
11 41 42 43 44 -1
12 45 46 47 48 -1
13 49 50 51 52 -1
14 53 54 55 56 -1
15 57 -1
EOF